c parity= 0 1 1 1 1 1 0 1 1 0 1 1 0 1 0 1 
c e=1/4
p cnf 16 32
x 6 7 8 11 14 15 16 0
x 2 3 4 7 8 9 11 13 15 16 0
x -2 3 5 9 10 11 13 15 16 0
x -4 6 11 14 15 0
x 1 2 3 4 6 7 8 9 10 13 14 0
x 1 3 4 5 6 7 8 9 11 12 16 0
x 1 4 5 7 10 16 0
x 3 4 10 11 12 14 15 0
x -2 3 5 6 8 9 10 13 0
x 2 4 5 7 8 10 11 12 14 15 0
x 3 7 8 10 12 16 0
x -1 2 6 7 8 10 11 13 14 15 0
x 2 3 4 5 11 15 16 0
x -1 5 12 14 16 0
x 4 5 6 8 9 12 0
x -1 2 5 6 8 9 10 16 0
x 1 2 3 7 8 9 13 14 15 0
x 1 2 3 4 5 6 9 10 12 14 16 0
x -1 4 6 7 8 9 10 11 12 14 15 16 0
x 1 8 9 11 13 0
x -2 3 4 9 12 15 0
x 3 5 6 7 12 14 15 16 0
x 2 7 10 12 13 14 0
x -2 3 4 5 8 10 11 12 14 0
x 1 2 3 5 6 9 11 12 13 16 0
x -7 8 9 10 11 13 14 0
x 2 3 4 6 7 8 11 12 13 0
x -2 3 4 6 8 10 11 13 14 16 0
x -2 3 5 7 8 9 13 15 16 0
x 1 5 6 9 10 11 12 13 0
x 1 2 5 6 7 9 10 11 12 15 0
x -2 4 5 6 10 11 13 16 0
